bad_dk_dual.lp
\ Model dual
\ LP format - for model browsing. Use MPS format to capture full model detail.
Minimize
  C0 + C1 + C2 + C3 + C4 + C5 + C6 + C7 + C8 + C9 + C10 + C11 + C12 + C13
   + 101 C14 + 100 C15 + 101 C16 + 100 C17 + 101 C18 + 100 C19 + 101 C20
   + 100 C21 + 101 C22 + 100 C23 + 101 C24 + 100 C25 + 101 C26 + 100 C27
   + 101 C28 + 100 C29 + 101 C30 + 100 C31 + 101 C32 + 100 C33 + 101 C34
   + 100 C35 + 101 C36 + 100 C37 + 101 C38 + 100 C39 + 101 C40 + 100 C41
Subject To
 theta[0,0]: C0 + 101 C14 + C43 >= 0
 theta[0,1]: C0 + 100 C15 - C42 - C71 >= 0
 theta[1,0]: C1 + 101 C16 + C45 - C72 >= 0
 theta[1,1]: C1 + 100 C17 - C44 - 2 C73 >= 0
 theta[2,0]: C2 + 101 C18 + C47 - 4 C74 >= 0
 theta[2,1]: C2 + 100 C19 - C46 - 5 C75 >= 0
 theta[3,0]: C3 + 101 C20 + C49 - 9 C76 >= 0
 theta[3,1]: C3 + 100 C21 - C48 - 10 C77 >= 0
 theta[4,0]: C4 + 101 C22 + C51 - 8 C78 >= 0
 theta[4,1]: C4 + 100 C23 - C50 - 9 C79 >= 0
 theta[5,0]: C5 + 101 C24 + C53 - 17 C80 >= 0
 theta[5,1]: C5 + 100 C25 - C52 - 18 C81 >= 0
 theta[6,0]: C6 + 101 C26 + C55 - 12 C82 >= 0
 theta[6,1]: C6 + 100 C27 - C54 - 13 C83 >= 0
 theta[7,0]: C7 + 101 C28 - 3 C57 - 5 C84 >= 0
 theta[7,1]: C7 + 100 C29 + 3 C56 - 2 C85 >= 0
 theta[8,0]: C8 + 101 C30 - 3 C59 - 10 C86 >= 0
 theta[8,1]: C8 + 100 C31 + 3 C58 - 7 C87 >= 0
 theta[9,0]: C9 + 101 C32 - 3 C61 - 9 C88 >= 0
 theta[9,1]: C9 + 100 C33 + 3 C60 - 6 C89 >= 0
 theta[10,0]: C10 + 101 C34 - C63 - 18 C90 >= 0
 theta[10,1]: C10 + 100 C35 + C62 - 17 C91 >= 0
 theta[11,0]: C11 + 101 C36 - 3 C65 - 13 C92 >= 0
 theta[11,1]: C11 + 100 C37 + 3 C64 - 10 C93 >= 0
 theta[12,0]: C12 + 101 C38 - 3 C67 - 26 C94 >= 0
 theta[12,1]: C12 + 100 C39 + 3 C66 - 23 C95 >= 0
 theta[13,0]: C13 + 101 C40 - C69 - 101 C96 >= 0
 theta[13,1]: C13 + 100 C41 + C68 - 100 C97 >= 0
 p[0,0]: - C14 + C43 + C70 + C98 >= 1
 p[0,1]: - C15 + C42 + C71 + C99 >= 1
 p[1,0]: - C16 + C45 + C72 + C100 >= 1
 p[1,1]: - C17 + C44 + C73 + C101 >= 1
 p[2,0]: - C18 + C47 + C74 + C102 >= 1
 p[2,1]: - C19 + C46 + C75 + C103 >= 1
 p[3,0]: - C20 + C49 + C76 + C104 >= 1
 p[3,1]: - C21 + C48 + C77 + C105 >= 1
 p[4,0]: - C22 + C51 + C78 + C106 >= 1
 p[4,1]: - C23 + C50 + C79 + C107 >= 1
 p[5,0]: - C24 + C53 + C80 + C108 >= 1
 p[5,1]: - C25 + C52 + C81 + C109 >= 1
 p[6,0]: - C26 + C55 + C82 + C110 >= 90
 p[6,1]: - C27 + C54 + C83 + C111 >= 90
 p[7,0]: - C28 + C57 + C84 + C112 >= 1
 p[7,1]: - C29 + C56 + C85 + C113 >= 1
 p[8,0]: - C30 + C59 + C86 + C114 >= 1
 p[8,1]: - C31 + C58 + C87 + C115 >= 1
 p[9,0]: - C32 + C61 + C88 + C116 >= 1
 p[9,1]: - C33 + C60 + C89 + C117 >= 1
 p[10,0]: - C34 + C63 + C90 + C118 >= 1
 p[10,1]: - C35 + C62 + C91 + C119 >= 1
 p[11,0]: - C36 + C65 + C92 + C120 >= 1
 p[11,1]: - C37 + C64 + C93 + C121 >= 1
 p[12,0]: - C38 + C67 + C94 + C122 >= 90
 p[12,1]: - C39 + C66 + C95 + C123 >= 90
 p[13,0]: - C40 + C69 + C96 + C124 >= 10
 p[13,1]: - C41 + C68 + C97 + C125 >= 10
 pi[0]: C14 + C16 + C18 + C20 + C22 + C24 + C26 + C28 + C30 + C32 + C34
   + C36 + C38 + C40 - C42 - C44 - C46 - C48 - C50 - C52 - C54 - C56 - C58
   - C60 - C62 - C64 - C66 - C68 - C98 - C100 - C102 - C104 - C106 - C108
   - C110 - C112 - C114 - C116 - C118 - C120 - C122 - C124 >= 0
 pi[1]: C15 + C17 + C19 + C21 + C23 + C25 + C27 + C29 + C31 + C33 + C35
   + C37 + C39 + C41 - C43 - C45 - C47 - C49 - C51 - C53 - C55 - C57 - C59
   - C61 - C63 - C65 - C67 - C69 - C99 - C101 - C103 - C105 - C107 - C109
   - C111 - C113 - C115 - C117 - C119 - C121 - C123 - C125 >= 0
Bounds
End
