bad_dk_dual.sol
# Solution for model dual
# Objective value = 4.4800001944490605e+03
C0 0
C1 1
C2 4
C3 9
C4 8
C5 17
C6 1080
C7 2
C8 7
C9 6
C10 17
C11 10
C12 2070
C13 7.6099980555094089e+02
C14 0
C15 1.0101010101010102e-02
C16 0
C17 1.0204081632653060e-02
C18 0
C19 1.0526315789473684e-02
C20 0
C21 1.1111111111111112e-02
C22 0
C23 1.0989010989010990e-02
C24 0
C25 1.2195121951219518e-02
C26 0
C27 1.0344827586206897e+00
C28 0.03125
C29 0
C30 3.2967032967032968e-02
C31 0
C32 3.2608695652173912e-02
C33 0
C34 1.2048192771084343e-02
C35 0
C36 3.4090909090909088e-02
C37 0
C38 3.6
C39 0
C40 0
C41 0
C42 0
C43 0
C44 0
C45 0
C46 0
C47 0
C48 0
C49 0
C50 0
C51 0
C52 0
C53 0
C54 0
C55 0
C56 0
C57 0
C58 0
C59 0
C60 0
C61 0
C62 0
C63 0
C64 0
C65 0
C66 0
C67 0
C68 1.2776163705895265e+00
C69 0
C70 1
C71 1.0101010101010102e+00
C72 1
C73 1.0102040816326530e+00
C74 1
C75 1.0105263157894737e+00
C76 1
C77 1.0111111111111111e+00
C78 1
C79 1.0109890109890109e+00
C80 1
C81 1.0121951219512195e+00
C82 90
C83 9.1034482758620683e+01
C84 1.03125
C85 1
C86 1.0329670329670331e+00
C87 1
C88 1.0326086956521738e+00
C89 1
C90 1.0120481927710843e+00
C91 1
C92 1.0340909090909092e+00
C93 1
C94 93.6
C95 90
C96 7.5346515401083254e+00
C97 7.6227742192153052e+00
C98 0
C99 0
C100 0
C101 0
C102 0
C103 0
C104 0
C105 0
C106 0
C107 0
C108 0
C109 0
C110 0
C111 0
C112 0
C113 0
C114 0
C115 0
C116 0
C117 0
C118 0
C119 0
C120 0
C121 0
C122 0
C123 0
C124 2.4653484598916746e+00
C125 1.0996094101951681e+00
